%global_infor
multi_threads  true
%end

############################################
# the examples before are used for J and K
# gradient/hessian debugging
############################################

# this is the testing molecule 1
%molecule
0 1
H  0   0    -0.35
H  0   0     0.35
%end

# sto-3g
%basis
H     0 
S   3   1.00
      3.42525091             0.15432897       
      0.62391373             0.53532814       
      0.16885540             0.44463454       
%end 

%gints
gints4deriv_threshold  1.0E-12
cs_threshold  1.0E-12
shellpair_threshold_gints4d  1.0E-12
%end

# this is the testing molecule 2
%molecule
0 1
H   0   0    -1.8
Li  0   0     0.6
%end

# this is a faked basis sets, all S, we 
# have three basis sets
%basis
H     0   
S   3   1.00
      3.42525091             0.15432897    
      0.62391373             0.53532814    
      0.16885540             0.44463454    
****
Li    0   
S   2   1.00
      0.5402050              0.1615460         
      0.1022550              0.9156630         
S   1   1.00
      0.0285650              1.0000000                           
%end 

%gints
gints4deriv_threshold  1.0E-12
cs_threshold  1.0E-12
shellpair_threshold_gints4d  1.0E-12
%end

# this is the testing molecule 3
%molecule
0 1
H  0   0    -0.35
H  0   0     0.35
%end

# 3-21g
%basis
H     0 
S   2   1.00
      5.4471780              0.1562850        
      0.8245470              0.9046910        
S   1   1.00
      0.1831920              1.0000000        
%end 

%gints
gints4deriv_threshold  1.0E-12
cs_threshold  1.0E-12
shellpair_threshold_gints4d  1.0E-12
%end

############################################
# the examples before are used for J and K
# gradient/hessian general testing
############################################

%molecule
0  1
H       0.7538138964    -0.0000000000    -0.4585707253
H      -0.7538138964    -0.0000000000    -0.4585707253
O      -0.0000000000     0.0000000000     0.1146426813
%end

# 3-21g
%basis
H     0 
S   2   1.00
      5.4471780              0.1562850        
      0.8245470              0.9046910        
S   1   1.00
      0.1831920              1.0000000        
****
O     0 
S   3   1.00
    322.0370000              0.0592394        
     48.4308000              0.3515000        
     10.4206000              0.7076580        
SP   2   1.00
      7.4029400             -0.4044530              0.2445860        
      1.5762000              1.2215600              0.8539550        
SP   1   1.00
      0.3736840              1.0000000              1.0000000        
%end 

%gints
gints4deriv_threshold  1.0E-15
cs_threshold  1.0E-15
shellpair_threshold_gints4d  1.0E-15
%end

%molecule
0  1
 H       0.6270000000     0.6270000000     0.6270000000
 H      -0.6270000000    -0.6270000000     0.6270000000
 H      -0.6270000000     0.6270000000    -0.6270000000
 H       0.6270000000    -0.6270000000    -0.6270000000
 C       0.0000000000     0.0000000000     0.0000000000
%end

# 6-31G
%basis
H     0 
S   3   1.00
     18.7311370              0.03349460       
      2.8253937              0.23472695       
      0.6401217              0.81375733       
S   1   1.00
      0.1612778              1.0000000        
****
C     0 
S   6   1.00
   3047.5249000              0.0018347        
    457.3695100              0.0140373        
    103.9486900              0.0688426        
     29.2101550              0.2321844        
      9.2866630              0.4679413        
      3.1639270              0.3623120        
SP   3   1.00
      7.8682724             -0.1193324              0.0689991        
      1.8812885             -0.1608542              0.3164240        
      0.5442493              1.1434564              0.7443083        
SP   1   1.00
      0.1687144              1.0000000              1.0000000        
%end 

%gints
gints4deriv_threshold  1.0E-15
cs_threshold  1.0E-15
shellpair_threshold_gints4d  1.0E-15
%end

%molecule
0  1
 H       0.6270000000     0.6270000000     0.6270000000
 H      -0.6270000000    -0.6270000000     0.6270000000
 H      -0.6270000000     0.6270000000    -0.6270000000
 H       0.6270000000    -0.6270000000    -0.6270000000
 C       0.0000000000     0.0000000000     0.0000000000
%end

# CC-PVDZ
%basis
H     0 
S   3   1.00
     13.0100000              0.0196850        
      1.9620000              0.1379770        
      0.4446000              0.4781480        
S   1   1.00
      0.1220000              1.0000000        
P   1   1.00
      0.7270000              1.0000000        
****
C     0 
S   8   1.00
   6665.0000000              0.0006920        
   1000.0000000              0.0053290        
    228.0000000              0.0270770        
     64.7100000              0.1017180        
     21.0600000              0.2747400        
      7.4950000              0.4485640        
      2.7970000              0.2850740        
      0.5215000              0.0152040        
S   8   1.00
   6665.0000000             -0.0001460        
   1000.0000000             -0.0011540        
    228.0000000             -0.0057250        
     64.7100000             -0.0233120        
     21.0600000             -0.0639550        
      7.4950000             -0.1499810        
      2.7970000             -0.1272620        
      0.5215000              0.5445290        
S   1   1.00
      0.1596000              1.0000000        
P   3   1.00
      9.4390000              0.0381090        
      2.0020000              0.2094800        
      0.5456000              0.5085570        
P   1   1.00
      0.1517000              1.0000000        
D   1   1.00
      0.5500000              1.0000000        
%end 

%gints
gints4deriv_threshold  1.0E-14
cs_threshold  1.0E-14
shellpair_threshold_gints4d  1.0E-14
%end

%molecule
0  1
 H       0.6270000000     0.6270000000     0.6270000000
 H      -0.6270000000    -0.6270000000     0.6270000000
 H      -0.6270000000     0.6270000000    -0.6270000000
 H       0.6270000000    -0.6270000000    -0.6270000000
 C       0.0000000000     0.0000000000     0.0000000000
%end

# 6-31G**
%basis
H     0 
S   3   1.00
     18.7311370              0.03349460       
      2.8253937              0.23472695       
      0.6401217              0.81375733       
S   1   1.00
      0.1612778              1.0000000        
P   1   1.00
      1.1000000              1.0000000        
****
C     0 
S   6   1.00
   3047.5249000              0.0018347        
    457.3695100              0.0140373        
    103.9486900              0.0688426        
     29.2101550              0.2321844        
      9.2866630              0.4679413        
      3.1639270              0.3623120        
SP   3   1.00
      7.8682724             -0.1193324              0.0689991        
      1.8812885             -0.1608542              0.3164240        
      0.5442493              1.1434564              0.7443083        
SP   1   1.00
      0.1687144              1.0000000              1.0000000        
D   1   1.00   C
      0.8000000              1.0000000        
%end 

%gints
gints4deriv_threshold  1.0E-14
cs_threshold  1.0E-14
shellpair_threshold_gints4d  1.0E-14
%end

