%molecule
0  1
H       0.932375     0.000000    -0.254973
H      -0.466187    -0.807460    -0.254973
H      -0.466187     0.807460    -0.254973
N       0.000000     0.000000     0.109274
%end

# aug-cc-pvdz
%basis
 H   0
 S   3  1.00
       13.0100000         0.196850000E-01
       1.96200000         0.137977000    
      0.444600000         0.478148000    
 S   1  1.00
      0.122000000          1.00000000    
 S   1  1.00
      0.297400000E-01      1.00000000    
 P   1  1.00
      0.727000000          1.00000000    
 P   1  1.00
      0.141000000          1.00000000    
 ****
 N   0
 S   8  1.00
       9046.00000         0.700000000E-03
       1357.00000         0.538900000E-02
       309.300000         0.274060000E-01
       87.7300000         0.103207000    
       28.5600000         0.278723000    
       10.2100000         0.448540000    
       3.83800000         0.278238000    
      0.746600000         0.154400000E-01
 S   8  1.00
       9046.00000        -0.153000000E-03
       1357.00000        -0.120800000E-02
       309.300000        -0.599200000E-02
       87.7300000        -0.245440000E-01
       28.5600000        -0.674590000E-01
       10.2100000        -0.158078000    
       3.83800000        -0.121831000    
      0.746600000         0.549003000    
 S   1  1.00
      0.224800000          1.00000000    
 S   1  1.00
      0.612400000E-01      1.00000000    
 P   3  1.00
       13.5500000         0.399190000E-01
       2.91700000         0.217169000    
      0.797300000         0.510319000    
 P   1  1.00
      0.218500000          1.00000000    
 P   1  1.00
      0.561100000E-01      1.00000000    
 D   1  1.00
      0.230000000          1.00000000    
 D   1  1.00
      0.817000000          1.00000000    
%end

# open shell molecule 
%molecule
0 2
H      -0.2406424519    -0.9796832148    -0.2377781635
H      -0.7281182251     0.6982409622    -0.2377765185
H       0.9687506346     0.2814435309    -0.2377806244
C       0.0000016737    -0.0000002130     0.1188892177
%end

%basis
H     0   
S   3   1.00
     18.7311370              0.03349460
      2.8253937              0.23472695
      0.6401217              0.81375733
S   1   1.00
      0.1612778              1.0000000
P   1   1.00
      1.1000000              1.0000000
****
C     0 
S   6   1.00
   5484.6717000              0.0018311        
    825.2349500              0.0139501        
    188.0469600              0.0684451        
     52.9645000              0.2327143        
     16.8975700              0.4701930        
      5.7996353              0.3585209        
S   3   1.00
     15.5396160             -0.1107775       
      3.5999336             -0.1480263      
      1.0137618              1.1307670     
S   1   1.00
      0.2700058              1.0000000    
P   3   1.00
     15.5396160              0.0708743        
      3.5999336              0.3397528        
      1.0137618              0.7271586        
P   1   1.00
      0.2700058              1.0000000          
D   1   1.00         
      0.8000000              1.0000000        
%end

