#
# NH3 with aug-cc-pvtz basis (modified)
#
#

%molecule
0 1
N       0.000000     0.000000     0.109274
H       0.932375     0.000000    -0.254973
H      -0.466187    -0.807460    -0.254973
H      -0.466187     0.807460    -0.254973
%end

%basis
H     0 
S   3   1.00
     33.8700000              0.0060680        
      5.0950000              0.0453080        
      1.1590000              0.2028220        
S   1   1.00
      0.3258000              1.0000000        
S   1   1.00
      0.1027000              1.0000000        
S   1   1.00
      0.0252600              1.0000000        
P   1   1.00
      1.4070000              1.0000000        
P   1   1.00
      0.3880000              1.0000000        
P   1   1.00
      0.1020000              1.0000000        
D   1   1.00     C
      1.0570000              1.0000000        
D   1   1.00     C
      0.2470000              1.0000000        
****
N     0 
S   8   1.00
  11420.0000000              0.0005230        
   1712.0000000              0.0040450        
    389.3000000              0.0207750        
    110.0000000              0.0807270        
     35.5700000              0.2330740        
     12.5400000              0.4335010        
      4.6440000              0.3474720        
      0.5118000             -0.0085080        
S   8   1.00
  11420.0000000             -0.0001150        
   1712.0000000             -0.0008950        
    389.3000000             -0.0046240        
    110.0000000             -0.0185280        
     35.5700000             -0.0573390        
     12.5400000             -0.1320760        
      4.6440000             -0.1725100        
      0.5118000              0.5999440        
SP   1   1.00
      1.2930000              1.0000000       1.000000 
SP   1   1.00
      0.1787000              1.0000000       1.000000 
SP   1   1.00
      0.0576000              1.0000000       1.000000 
P   3   1.00
     26.6300000              0.0146700        
      5.9480000              0.0917640        
      1.7420000              0.2986830        
P   1   1.00
      0.5550000              1.0000000      
SP   1   1.00
      0.1725000              1.0000000       1.000000   
P   1   1.00
      0.0491000              1.0000000        
D   1   1.00
      1.6540000              1.0000000        
D   1   1.00
      0.4690000              1.0000000        
D   1   1.00
      0.1510000              1.0000000        
F   1   1.00 
      1.0930000              1.0000000        
F   1   1.00
      0.3640000              1.0000000        
%end

%molecule
0 1
N          1.75524       -0.03055       -0.15305
C          0.46128        0.62257        0.10589
C         -0.74491       -0.32028       -0.01207
O         -1.89675        0.44072        0.26071
H          1.76784       -0.40647       -1.07847
H          1.89801       -0.77424        0.49847
H          0.36238        1.46995       -0.60184
H          0.50565        1.07184        1.11828
H         -0.66487       -1.16329        0.70383
H         -0.80945       -0.76139       -1.02735
H         -2.63443       -0.14886        0.18560
%end

%basis
7  6-31G**
O  aug-cc-pvdz
H  cc-pvtz
6  aug-cc-pvdz
%end

%molecule
0 1
H         -1.54700        9.37743       -1.21644
O         -1.44000        8.89599       -0.40059
P          0.00000        8.91000        0.00000
O          0.22000       10.17457        0.73384
O          0.79000        8.73346       -1.23964
O          0.25000        7.66872        0.97140
C         -0.69000        7.42405        2.04668
C          0.04000        6.86059        3.24661
O          0.25000        5.42934        3.03695
C          1.44000        7.41287        3.50796
O          1.83000        7.27073        4.86816
C          2.32000        6.52730        2.63741
C          1.61000        5.18420        2.73198
N          1.66000        4.38762        1.47840
C          1.58000        4.83651        0.18388
N          1.65000        3.88759       -0.69939
C          1.80000        2.74040        0.05756
C          1.93000        1.37902       -0.29393
N          1.94000        0.93802       -1.54797
N          2.05000        0.49182        0.70549
C          2.04000        0.93174        1.95979
N          1.92000        2.16017        2.41481
C          1.80000        3.02547        1.39121
H         -1.17800        8.36899        2.32520
H         -1.45000        6.70391        1.71179
H         -0.58200        7.03638        4.13219
H          2.07300        4.59931        3.54016
H          2.35300        6.88995        1.59871
H          3.34400        6.46840        3.03730
H          1.51000        8.47002        3.20749
H          1.46900        5.88850       -0.07655
H          1.85000        1.60276       -2.32875
H          2.03900       -0.06994       -1.73859
H          2.14700        0.16551        2.71897
P          3.37998        7.36179        5.01918
O          3.59998        7.99246        6.33724
O          4.16998        7.91334        3.89505
O          3.62998        5.78898        5.12256
C          2.68998        4.98046        5.87240
C          3.41998        3.83960        6.54718
O          3.62998        2.77471        5.56681
C          4.81998        4.14819        7.07337
O          5.20998        3.26503        8.11801
C          5.69998        3.90740        5.85609
C          4.98998        2.74440        5.17763
N          5.03998        2.79181        3.69235
C          5.18998        1.59232        3.00409
O          5.27998        0.53828        3.65053
N          5.23998        1.75498        1.50358
C          5.13998        2.77131        0.98156
N          5.18998        2.73860       -0.34301
C          4.98998        4.01938        1.66347
C          4.93998        3.97125        3.02146
H          2.19998        5.60366        6.63406
H          1.93098        4.57276        5.18854
H          2.79798        3.48598        7.37791
H          5.45298        1.80558        5.51495
H          5.73198        4.79216        5.20216
H          6.72398        3.63296        6.15245
H          4.88998        5.19084        7.42067
H          4.81798        4.89372        3.58609
H          4.91998        4.96171        1.12204
H          5.30798        1.83881       -0.83133
H          5.11098        3.61179       -0.88234
P          6.75996        3.25519        8.29409
O          6.97996        3.03348        9.73743
O          7.54996        4.34366        7.67512
O          7.00996        1.89744        7.49350
C          6.06996        0.80701        7.65759
C          6.79996       -0.51573        7.57246
O          7.00996       -0.84332        6.16257
C          8.19996       -0.55718        8.18105
O          8.58996       -1.87535        8.54667
C          9.07996       -0.07040        7.03965
C          8.36996       -0.64913        5.82394
N          8.41996        0.22678        4.62444
C          8.33996        1.60253        4.54474
N          8.41996        2.07227        3.32747
C          8.55996        0.93343        2.53352
C          8.68996        0.80764        1.13129
O          8.70996        1.68723        0.27193
N          8.80996       -0.53978        0.74501
C          8.80996       -1.61479        1.60962
N          8.93996       -2.82043        1.05131
N          8.67996       -1.49879        2.92878
C          8.55996       -0.20301        3.32381
H          5.58096        0.89297        8.63897
H          5.31096        0.85551        6.86389
H          6.17796       -1.27571        8.05865
H          8.83296       -1.62042        5.57217
H          9.11196        1.02884        6.99676
H         10.10396       -0.46410        7.12991
H          8.26996        0.10866        9.05535
H          8.22096        2.24065        5.42012
H          8.90296       -0.73323       -0.23181
H          8.93996       -3.66566        1.64048
H          9.04096       -2.90786        0.02848
P         10.13994       -1.98266        8.68661
O         10.35994       -2.97920        9.75522
O         10.92994       -0.73473        8.78934
O         10.38994       -2.65350        7.26029
C          9.44994       -3.64642        6.78072
C         10.17994       -4.69183        5.96614
O         10.38994       -4.16828        4.61669
C         11.57994       -5.06891        6.44563
O         11.96994       -6.36399        6.00517
C         12.45994       -4.02375        5.77677
C         11.74994       -3.81708        4.44629
N         11.79994       -2.41715        3.94779
C         11.94994       -2.23290        2.59048
O         12.03994       -3.15995        1.80674
N         11.98994       -0.91555        2.17517
C         11.89994        0.19832        2.97339
O         11.94994        1.33363        2.48472
C         11.74994       -0.08934        4.37909
C         11.63994        1.09715        5.28737
C         11.69994       -1.36238        4.82121
H          8.95994       -4.12870        7.64088
H          8.69094       -3.15926        6.15225
H          9.55794       -5.59364        5.93973
H         12.21294       -4.47330        3.69496
H         12.49194       -3.09178        6.36146
H         13.48394       -4.39988        5.62957
H         11.64994       -5.01128        7.54309
H         11.57894       -1.55594        5.88685
H         12.60894        1.27741        5.77747
H         10.87194        0.90565        6.04959
H         11.35994        1.98455        4.69913
H         12.09594       -0.75875        1.19319
H         11.83894       -6.43071        5.05715
H         15.86094        4.79985       -8.21100
O         15.74094        3.88089       -8.01373
P         14.29994        3.51883       -8.18572
O         14.07994        3.34374       -9.63636
O         13.50994        4.58746       -7.53310
O         14.04994        2.13617       -7.42898
C         14.98994        1.05027       -7.62905
C         14.25994       -0.27465       -7.58503
O         14.04994       -0.64691       -6.18627
C         12.85994       -0.28852       -8.19492
O         12.46994       -1.60259       -8.60199
C         11.97994        0.15351       -7.03833
C         12.68994       -0.46359       -5.84163
N         12.63994        0.37834       -4.61452
C         12.71994        1.74115       -4.51597
N         12.64994        2.17787       -3.29536
C         12.49994        1.02901       -2.53944
C         12.36994        0.81465       -1.15084
N         12.35994        1.79259       -0.25043
N         12.24994       -0.45404       -0.73037
C         12.25994       -1.43281       -1.62971
N         12.37994       -1.36594       -2.93800
C         12.49994       -0.08388       -3.32894
H         15.47894        1.16739       -8.60719
H         15.75094        1.08035       -6.83312
H         14.88294       -1.01878       -8.09514
H         12.22794       -1.43677       -5.62232
H         11.94794        1.25083       -6.96050
H         10.95694       -0.23712       -7.14106
H         12.79094        0.39659       -9.04731
H         12.83194        2.39588       -5.37960
H         12.45094        2.77243       -0.55278
H         12.26194        1.57055        0.75131
H         12.15394       -2.43281       -1.22541
P         10.91996       -1.70378       -8.74558
O         10.69996       -2.66563       -9.84553
O         10.12996       -0.45321       -8.80835
O         10.66996       -2.42022       -7.34241
C         11.60996       -3.42982       -6.89505
C         10.87996       -4.49420       -6.11763
O         10.66996       -4.02000       -4.74768
C          9.47996       -4.85475       -6.60843
O          9.08996       -6.17050       -6.20523
C          8.59996       -3.83800       -5.90181
C          9.30996       -3.67374       -4.56544
N          9.25996       -2.29087       -4.02353
C          9.10996       -2.13152       -2.64889
O          9.01996       -3.14156       -1.93565
N          9.05996       -0.68796       -2.20518
C          9.15996        0.19271       -2.93368
N          9.10996        1.39430       -2.38191
C          9.30996        0.05913       -4.34960
C          9.35996       -1.21232       -4.84049
H         12.09996       -3.88362       -7.76832
H         12.36996       -2.96286       -6.25141
H         11.50296       -5.40258       -6.11537
H          8.84796       -4.35503       -3.83668
H          8.56796       -2.88791       -6.45657
H          7.57696       -4.21921       -5.76746
H          9.41096       -4.76886       -7.69865
H          9.48296       -1.36190       -5.91217
H          9.38096        0.92889       -5.00249
H          8.99296        1.48933       -1.36318
H          9.18896        2.23702       -2.96973
P          7.53998       -6.33429       -6.26616
O          7.31998       -7.74863       -6.63315
O          6.74998       -5.33638       -7.02250
O          7.28998       -6.13501       -4.70261
C          8.22998       -6.71797       -3.76487
C          7.49998       -7.16104       -2.51546
O          7.28998       -5.99498       -1.65791
C          6.09998       -7.73385       -2.72536
O          5.70998       -8.59286       -1.65085
C          5.21998       -6.49571       -2.71429
C          5.92998       -5.60719       -1.70265
N          5.87998       -4.15934       -2.03390
C          5.95998       -3.54315       -3.26779
N          5.87998       -2.23858       -3.21794
C          5.73998       -1.95893       -1.85811
C          5.60998       -0.71985       -1.18791
O          5.58998        0.41675       -1.65844
N          5.48998       -0.89779        0.20095
C          5.48998       -2.11727        0.84860
N          5.35998       -2.07932        2.17635
N          5.61998       -3.28279        0.21762
C          5.73998       -3.13287       -1.12872
H          8.71898       -7.58572       -4.23125
H          8.99098       -5.96958       -3.49612
H          8.12298       -7.90776       -2.00913
H          5.46798       -5.75958       -0.71674
H          5.18798       -6.02322       -3.70785
H          4.19698       -6.73500       -2.38853
H          6.03098       -8.27793       -3.67493
H          6.07998       -4.09533       -4.19979
H          5.39798       -0.07713        0.76412
H          5.36098       -2.95431        2.72035
H          5.25998       -1.17327        2.65862
P          4.16000       -8.76350       -1.60911
O          3.94000      -10.13881       -1.11561
O          3.37000       -8.36503       -2.79617
O          3.91000       -7.71806       -0.42951
C          4.85000       -7.66948        0.67351
C          4.12000       -7.33374        1.95559
O          3.91000       -5.88721        2.00726
C          2.72000       -7.92218        2.11250
O          2.33000       -8.02971        3.47653
C          1.84000       -6.89504        1.41631
C          2.55000       -5.59106        1.75155
N          2.50000       -4.58136        0.66241
C          2.35000       -3.26059        1.02863
O          2.26000       -2.90743        2.19009
N          2.31000       -2.35995       -0.01556
C          2.40000       -2.65248       -1.35603
O          2.35000       -1.75605       -2.20651
C          2.55000       -4.05747       -1.64698
C          2.66000       -4.42345       -3.09553
C          2.60000       -4.96734       -0.65241
H          5.34100       -8.64917        0.77698
H          5.61000       -6.89974        0.47401
H          4.74300       -7.66548        2.79458
H          2.08800       -5.16076        2.65138
H          1.80900       -7.06433        0.32938
H          0.81700       -6.90829        1.81996
H          2.65100       -8.90774        1.62639
H          2.72200       -6.02181       -0.89529
H          1.69200       -4.80252       -3.45468
H          3.42900       -5.20015       -3.22119
H          2.94100       -3.53269       -3.67833
H          2.20500       -1.39558        0.22750
H          1.61300       -8.66322        3.55694
%end

%basis
6-31g
%end

