
#
# setting for the global infor
#
%global_infor
multi_threads true
%end


#
# benzene molecule with aug-cc-pvtz basis set
#
#
%molecule
0  1
 H       2.461800     0.000000    -0.000000
 H       1.230900     2.131981     0.000000
 H      -1.230900     2.131981     0.000000
 H      -2.461800    -0.000000    -0.000000
 H      -1.230900    -2.131981    -0.000000
 H       1.230900    -2.131981    -0.000000
 C       1.386200     0.000000     0.000000
 C       0.693100     1.200484     0.000000
 C      -0.693100     1.200484     0.000000
 C      -1.386200    -0.000000     0.000000
 C      -0.693100    -1.200484    -0.000000
 C       0.693100    -1.200484    -0.000000
%end

%basis
H     0 
S   3   1.00
     33.8700000              0.0060680        
      5.0950000              0.0453080        
      1.1590000              0.2028220        
S   1   1.00
      0.3258000              1.0000000        
S   1   1.00
      0.1027000              1.0000000        
S   1   1.00
      0.0252600              1.0000000        
P   1   1.00
      1.4070000              1.0000000        
P   1   1.00
      0.3880000              1.0000000        
P   1   1.00
      0.1020000              1.0000000        
D   1   1.00
      1.0570000              1.0000000        
D   1   1.00
      0.2470000              1.0000000        
****
C     0 
S   8   1.00
   8236.0000000              0.0005310        
   1235.0000000              0.0041080        
    280.8000000              0.0210870        
     79.2700000              0.0818530        
     25.5900000              0.2348170        
      8.9970000              0.4344010        
      3.3190000              0.3461290        
      0.3643000             -0.0089830        
S   8   1.00
   8236.0000000             -0.0001130        
   1235.0000000             -0.0008780        
    280.8000000             -0.0045400        
     79.2700000             -0.0181330        
     25.5900000             -0.0557600        
      8.9970000             -0.1268950        
      3.3190000             -0.1703520        
      0.3643000              0.5986840        
S   1   1.00
      0.9059000              1.0000000        
S   1   1.00
      0.1285000              1.0000000        
S   1   1.00
      0.0440200              1.0000000        
P   3   1.00
     18.7100000              0.0140310        
      4.1330000              0.0868660        
      1.2000000              0.2902160        
P   1   1.00
      0.3827000              1.0000000        
P   1   1.00
      0.1209000              1.0000000        
P   1   1.00
      0.0356900              1.0000000        
D   1   1.00
      1.0970000              1.0000000        
D   1   1.00
      0.3180000              1.0000000        
D   1   1.00
      0.1000000              1.0000000        
F   1   1.00
      0.7610000              1.0000000        
F   1   1.00
      0.2680000              1.0000000        
%end

#
# benzene molecule with aug-cc-pvtz basis set
# however, all basis sets are cartesian
#
%molecule
0  1
 H       2.461800     0.000000    -0.000000
 H       1.230900     2.131981     0.000000
 H      -1.230900     2.131981     0.000000
 H      -2.461800    -0.000000    -0.000000
 H      -1.230900    -2.131981    -0.000000
 H       1.230900    -2.131981    -0.000000
 C       1.386200     0.000000     0.000000
 C       0.693100     1.200484     0.000000
 C      -0.693100     1.200484     0.000000
 C      -1.386200    -0.000000     0.000000
 C      -0.693100    -1.200484    -0.000000
 C       0.693100    -1.200484    -0.000000
%end

%basis
H     0 
S   3   1.00
     33.8700000              0.0060680        
      5.0950000              0.0453080        
      1.1590000              0.2028220        
S   1   1.00
      0.3258000              1.0000000        
S   1   1.00
      0.1027000              1.0000000        
S   1   1.00
      0.0252600              1.0000000        
P   1   1.00
      1.4070000              1.0000000        
P   1   1.00
      0.3880000              1.0000000        
P   1   1.00
      0.1020000              1.0000000        
D   1   1.00       C
      1.0570000              1.0000000        
D   1   1.00       C
      0.2470000              1.0000000        
****
C     0 
S   8   1.00
   8236.0000000              0.0005310        
   1235.0000000              0.0041080        
    280.8000000              0.0210870        
     79.2700000              0.0818530        
     25.5900000              0.2348170        
      8.9970000              0.4344010        
      3.3190000              0.3461290        
      0.3643000             -0.0089830        
S   8   1.00
   8236.0000000             -0.0001130        
   1235.0000000             -0.0008780        
    280.8000000             -0.0045400        
     79.2700000             -0.0181330        
     25.5900000             -0.0557600        
      8.9970000             -0.1268950        
      3.3190000             -0.1703520        
      0.3643000              0.5986840        
S   1   1.00
      0.9059000              1.0000000        
S   1   1.00
      0.1285000              1.0000000        
S   1   1.00
      0.0440200              1.0000000        
P   3   1.00
     18.7100000              0.0140310        
      4.1330000              0.0868660        
      1.2000000              0.2902160        
P   1   1.00
      0.3827000              1.0000000        
P   1   1.00
      0.1209000              1.0000000        
P   1   1.00
      0.0356900              1.0000000        
D   1   1.00        C
      1.0970000              1.0000000        
D   1   1.00        C
      0.3180000              1.0000000        
D   1   1.00        C
      0.1000000              1.0000000        
F   1   1.00        C
      0.7610000              1.0000000        
F   1   1.00        C
      0.2680000              1.0000000        
%end


# this is used for testing the status of 
# "with matrix's transpose"
%molecule
0 1
H   1   0   0
H   0   1   0
O   0   0   0
%end

%basis
H     0 
S   3   1.00
     13.0100000              0.0196850        
      1.9620000              0.1379770        
      0.4446000              0.4781480        
S   1   1.00
      0.1220000              1.0000000        
S   1   1.00
      0.0297400              1.0000000        
P   1   1.00
      0.7270000              1.0000000        
P   1   1.00
      0.1410000              1.0000000        
****
O     0 
S   8   1.00
  11720.0000000              0.0007100        
   1759.0000000              0.0054700        
    400.8000000              0.0278370        
    113.7000000              0.1048000        
     37.0300000              0.2830620        
     13.2700000              0.4487190        
      5.0250000              0.2709520        
      1.0130000              0.0154580        
S   8   1.00
  11720.0000000             -0.0001600        
   1759.0000000             -0.0012630        
    400.8000000             -0.0062670        
    113.7000000             -0.0257160        
     37.0300000             -0.0709240        
     13.2700000             -0.1654110        
      5.0250000             -0.1169550        
      1.0130000              0.5573680        
S   1   1.00
      0.3023000              1.0000000        
S   1   1.00
      0.0789600              1.0000000        
P   3   1.00
     17.7000000              0.0430180        
      3.8540000              0.2289130        
      1.0460000              0.5087280        
P   1   1.00
      0.2753000              1.0000000        
P   1   1.00
      0.0685600              1.0000000        
D   1   1.00
      1.1850000              1.0000000        
D   1   1.00
      0.3320000              1.0000000        
%end 


############################
# ch4 atom/molecule       
############################
%molecule
0 1
C   .000000     .000000     .000000
H   .628352     .628352     .628352
H  -.628352    -.628352     .628352
H   .628352    -.628352    -.628352
H  -.628352     .628352    -.628352
%end

%basis
 H 0
 S    3 1.00
  0.3386500000D+02  0.2549380000D-01
  0.5094790000D+01  0.1903730000D+00
  0.1158790000D+01  0.8521610000D+00
 S    1 1.00
  0.3258400000D+00  0.1000000000D+01
 S    1 1.00
  0.1027410000D+00  0.1000000000D+01
 S    1 1.00
  0.3600000000D-01  0.1000000000D+01
 P    1 1.00
  0.1500000000D+01  0.1000000000D+01
 P    1 1.00
  0.3750000000D+00  0.1000000000D+01
 ****
 C 0
 S    6 1.00
  0.4563240000D+04  0.1966650000D-02
  0.6820240000D+03  0.1523060000D-01
  0.1549730000D+03  0.7612690000D-01
  0.4445530000D+02  0.2608010000D+00
  0.1302900000D+02  0.6164620000D+00
  0.1827730000D+01  0.2210060000D+00
 SP   3 1.00
  0.2096420000D+02  0.1146600000D+00  0.4024870000D-01
  0.4803310000D+01  0.9199990000D+00  0.2375940000D+00
  0.1459330000D+01 -0.3030680000D-02  0.8158540000D+00
 SP   1 1.00
  0.4834560000D+00  0.1000000000D+01  0.1000000000D+01
 SP   1 1.00
  0.1455850000D+00  0.1000000000D+01  0.1000000000D+01
 SP   1 1.00
  0.4380000000D-01  0.1000000000D+01  0.1000000000D+01
 D    1 1.00
  0.1252000000D+01  0.1000000000D+01
 D    1 1.00
  0.3130000000D+00  0.1000000000D+01
 F    1 1.00
  0.8000000000D+00  0.1000000000D+01
 P   1 1.00
  0.16000000000000D+02  0.1000000000D+01  
 D   1 1.00
  0.15000000000000D+02  0.1000000000D+01 
%end

