%global_infor
multi_threads  true
print_timing   true
%end

############################################
# the examples before are used for J and K
# gradient/hessian debugging for large molecules
############################################

#
# alanine-3 with 6-31g** 
#
%molecule
0  1
N      -2.6864841999    -1.3481633666     1.4442700592
C      -2.7418539128    -1.2945021062    -0.0094364884
C      -1.7384185849    -0.2300527214    -0.4834203704
O      -1.0240987077    -0.3704978751    -1.4745379298
H      -2.1162554189    -0.6706861887     1.9432946778
H      -2.4259485252    -2.2682859033    -0.4011871309
C      -4.1475023426    -0.9653901811    -0.4983070418
H      -4.8734565052    -1.7050374028    -0.1452742618
H      -4.4703091746     0.0167406284    -0.1351363354
H      -4.1933603574    -0.9451317244    -1.5923017175
H      -3.3340944600    -1.9407966609     1.9557746306
N      -1.6106926952     0.9190602754     0.1939405042
C      -0.6605977820     1.9266674239    -0.2546542218
C       0.7424215899     1.2975579860    -0.2357117004
O       1.5834517312     1.4984174477    -1.1101238558
H      -1.2624114333     0.0261554360     0.5324348194
H      -0.9069767297     2.1946511228    -1.2885861906
C      -0.7074801426     3.1656332290     0.6318536083
H      -1.7093981883     3.6069288629     0.6439455738
H      -0.4400796268     2.9198631809     1.6656746928
H      -0.0071721007     3.9315046437     0.2820574919
N       1.0990212025     0.4854188799     0.7687181593
C       2.4271668858    -0.1103174958     0.7865371219
C       2.5826512140    -0.9609706438    -0.4849980485
O       3.6204139592    -1.0065166974    -1.1432223978
H       0.4468138417     0.2191351932     0.0360008198
H       3.1665679847     0.6983003303     0.7558477285
C       2.6353871421    -0.9620191033     2.0332924354
H       2.5026815216    -0.3700143932     2.9446814796
H       1.9189772318    -1.7904270069     2.0678332674
H       3.6416537212    -1.3935775929     2.0564634984
O       1.5065524143    -1.6815338092    -0.8697095655
H       0.6086584894    -1.6421238988    -0.3002058781
%end

# this is the standard 6-31G** basis set data
%basis
H     0 
S   3   1.00
     18.7311370              0.03349460       
      2.8253937              0.23472695       
      0.6401217              0.81375733       
S   1   1.00
      0.1612778              1.0000000        
P   1   1.00
      1.1000000              1.0000000        
****
C     0 
S   6   1.00
   3047.5249000              0.0018347        
    457.3695100              0.0140373        
    103.9486900              0.0688426        
     29.2101550              0.2321844        
      9.2866630              0.4679413        
      3.1639270              0.3623120        
SP   3   1.00
      7.8682724             -0.1193324              0.0689991        
      1.8812885             -0.1608542              0.3164240        
      0.5442493              1.1434564              0.7443083        
SP   1   1.00
      0.1687144              1.0000000              1.0000000        
D   1   1.00                 C
      0.8000000              1.0000000        
****
N     0 
S   6   1.00
   4173.5110000              0.0018348        
    627.4579000              0.0139950        
    142.9021000              0.0685870        
     40.2343300              0.2322410        
     12.8202100              0.4690700        
      4.3904370              0.3604550        
SP   3   1.00
     11.6263580             -0.1149610              0.0675800        
      2.7162800             -0.1691180              0.3239070        
      0.7722180              1.1458520              0.7408950        
SP   1   1.00
      0.2120313              1.0000000              1.0000000        
D   1   1.00                 C
      0.8000000              1.0000000        
****
O     0 
S   6   1.00
   5484.6717000              0.0018311        
    825.2349500              0.0139501        
    188.0469600              0.0684451        
     52.9645000              0.2327143        
     16.8975700              0.4701930        
      5.7996353              0.3585209        
SP   3   1.00
     15.5396160             -0.1107775              0.0708743        
      3.5999336             -0.1480263              0.3397528        
      1.0137618              1.1307670              0.7271586        
SP   1   1.00
      0.2700058              1.0000000              1.0000000        
D   1   1.00                 C
      0.8000000              1.0000000        
%end

%gints
gints4deriv_threshold  1.0E-10
cs_threshold  1.0E-10
shellpair_threshold_gints4d  1.0E-10
%end

