%molecule
0  1
C          1.22339        0.99273        0.58670
C          1.52589       -0.34287        1.32180
C          0.38599       -1.38987        1.25320
C         -1.01341       -0.73927        1.33320
C         -1.12171        0.43453        0.33650
C         -2.45871        1.18293        0.43440
O         -3.51071        0.29493        0.02720
O         -0.13551        1.42613        0.70490
O         -1.89791       -1.79637        0.94080
O          0.54889       -2.05617       -0.00330
O          2.71599       -0.89087        0.79180
O          1.50279        0.77363       -0.78240
H         -0.90781        0.08173       -0.69970
H          1.78329        1.86483        0.98530
H          1.78479       -0.12427        2.38660
H          0.51179       -2.15827        2.05160
H         -1.26161       -0.42647        2.37000
H          1.35359        1.58613       -1.30980
H          2.54729       -1.19987       -0.14750
H         -2.72551        1.44133        1.47780
H         -2.45921        2.10223       -0.17570
H         -2.81051       -1.42457        0.76370
H         -0.27901       -2.56357       -0.21180
H         -3.53701        0.21783       -0.95170
%end

# 6-31++G**
%basis
H     0 
S   3   1.00
     18.7311370              0.03349460       
      2.8253937              0.23472695       
      0.6401217              0.81375733       
S   1   1.00
      0.1612778              1.0000000        
S   1   1.00
      0.0360000              1.0000000        
P   1   1.00
      1.1000000              1.0000000        
****
C     0 
S   6   1.00
   3047.5249000              0.0018347        
    457.3695100              0.0140373        
    103.9486900              0.0688426        
     29.2101550              0.2321844        
      9.2866630              0.4679413        
      3.1639270              0.3623120        
SP   3   1.00
      7.8682724             -0.1193324              0.0689991        
      1.8812885             -0.1608542              0.3164240        
      0.5442493              1.1434564              0.7443083        
SP   1   1.00
      0.1687144              1.0000000              1.0000000        
SP   1   1.00
      0.0438000              1.0000000              1.0000000        
D   1   1.00      C
      0.8000000              1.0000000        
****
O     0 
S   6   1.00
   5484.6717000              0.0018311        
    825.2349500              0.0139501        
    188.0469600              0.0684451        
     52.9645000              0.2327143        
     16.8975700              0.4701930        
      5.7996353              0.3585209        
SP   3   1.00
     15.5396160             -0.1107775              0.0708743        
      3.5999336             -0.1480263              0.3397528        
      1.0137618              1.1307670              0.7271586        
SP   1   1.00
      0.2700058              1.0000000              1.0000000        
SP   1   1.00
      0.0845000              1.0000000              1.0000000        
D   1   1.00        C
      0.8000000              1.0000000        
%end

#
# this is a big DNA chain molecule
# total number of molecule is 2038
#
%molecule
0  1
H         -6.83116        7.03430       -1.21644
O         -6.72416        6.55286       -0.40059
P         -5.28416        6.56687        0.00000
O         -5.06416        7.83144        0.73384
O         -4.49416        6.39033       -1.23964
O         -5.03416        5.32559        0.97140
C         -5.97416        5.08092        2.04668
C         -5.24416        4.51746        3.24661
O         -5.03416        3.08621        3.03695
C         -3.84416        5.06974        3.50796
O         -3.45416        4.92760        4.86816
C         -2.96416        4.18417        2.63741
C         -3.67416        2.84107        2.73198
N         -3.62416        2.04449        1.47840
C         -3.70416        2.49338        0.18388
N         -3.63416        1.54446       -0.69939
C         -3.48416        0.39727        0.05756
C         -3.35416       -0.96411       -0.29393
N         -3.34416       -1.40511       -1.54797
N         -3.23416       -1.85131        0.70549
C         -3.24416       -1.41139        1.95979
N         -3.36416       -0.18296        2.41481
C         -3.48416        0.68234        1.39121
H         -6.46216        6.02586        2.32520
H         -6.73416        4.36078        1.71179
H         -5.86616        4.69325        4.13219
H         -3.21116        2.25618        3.54016
H         -2.93116        4.54682        1.59871
H         -1.94016        4.12527        3.03730
H         -3.77416        6.12689        3.20749
H         -3.81516        3.54537       -0.07655
H         -3.43416       -0.74037       -2.32875
H         -3.24516       -2.41306       -1.73859
H         -3.13716       -2.17762        2.71897
P         -1.90418        5.15244        4.81711
O         -1.68418        5.81872        6.11753
O         -1.11418        5.67322        3.67839
O         -1.65418        3.58303        4.96322
C         -2.59418        2.79520        5.73477
C         -1.86418        1.67311        6.44033
O         -1.65418        0.58196        5.48929
C         -0.46418        1.99589        6.95794
O         -0.07418        1.14147        8.02621
C          0.41582        1.72209        5.74766
C         -0.29418        0.54107        5.10108
N         -0.24418        0.54807        3.61506
C         -0.09418       -0.66970        2.95967
O         -0.00418       -1.70577        3.63454
N         -0.04418       -0.54790        1.45529
C         -0.14418        0.45385        0.90582
N         -0.09418        0.38513       -0.41736
C         -0.29418        1.72000        1.55354
C         -0.34418        1.70883        2.91234
H         -3.08418        3.43889        6.47921
H         -3.35318        2.36905        5.06226
H         -2.48618        1.34222        7.28037
H          0.16882       -0.38823        5.46381
H          0.44782        2.58874        5.06991
H          1.43982        1.45581        6.05137
H         -0.39418        3.04761        7.27675
H         -0.46618        2.64631        3.45167
H         -0.36418        2.64726        0.98668
H          0.02382       -0.52761       -0.88103
H         -0.17318        1.24332       -0.98024
P          1.47580        1.35822        8.10482
O          1.69580        1.21532        9.55809
O          2.26580        2.41142        7.42758
O          1.72580       -0.04105        7.37925
C          0.78580       -1.12095        7.60239
C          1.51580       -2.44636        7.58930
O          1.72580       -2.85012        6.19930
C          2.91580       -2.45465        8.19924
O          3.30580       -3.75099        8.63600
C          3.79580       -2.03066        7.03306
C          3.08580       -2.67463        5.85062
N          3.13580       -1.86524        4.60527
C          3.05580       -0.49586        4.45088
N          3.13580       -0.09300        3.20988
C          3.27580       -1.27333        2.47902
C          3.40580       -1.47517        1.08570
O          3.42580       -0.64361        0.17979
N          3.52580       -2.84160        0.77325
C          3.52580       -3.86801        1.69504
N          3.65580       -5.10223        1.20311
N          3.39580       -3.68046        3.00594
C          3.27580       -2.36511        3.32993
H          0.29680       -0.98176        8.57764
H          0.02680       -1.11568        6.80722
H          0.89380       -3.17878        8.11609
H          3.54880       -3.65818        5.65203
H          3.82780       -0.93537        6.93047
H          4.81980       -2.41887        7.14460
H          2.98580       -1.74226        9.03604
H          2.93680        0.18891        5.29027
H          3.61880       -3.08788       -0.19160
H          3.65580       -5.91417        1.83737
H          3.75680       -5.24514        0.18655
P          4.85578       -3.61115        8.81931
O          5.07578       -4.51728        9.96559
O          5.64578       -2.35900        8.81999
O          5.10578       -4.39602        7.45242
C          4.16578       -5.42472        7.05538
C          4.89578       -6.53305        6.32871
O          5.10578       -6.12124        4.94108
C          6.29578       -6.86979        6.83735
O          6.68578       -8.19647        6.50391
C          7.17578       -5.88263        6.08552
C          6.46578       -5.78509        4.74263
N          6.51578       -4.43045        4.13167
C          6.66578       -4.35745        2.76386
O          6.75578       -5.34530        2.05829
N          6.70578       -3.07833        2.24256
C          6.61578       -1.90311        2.94733
O          6.66578       -0.81141        2.36775
C          6.46578       -2.07524        4.37180
C          6.35578       -0.81866        5.18035
C          6.41578       -3.30800        4.91621
H          3.67578       -5.83529        7.95198
H          3.40678       -4.99041        6.38928
H          4.27378       -7.43402        6.37590
H          6.92878       -6.50037        4.04729
H          7.20778       -4.90611        6.59230
H          8.19978       -6.26951        5.96947
H          6.36578       -6.72290        7.92646
H          6.29478       -3.41406        5.99408
H          7.32478       -0.59906        5.65412
H          5.58778       -0.94740        5.95564
H          6.07578        0.01784        4.52173
H          6.81178       -3.00210        1.25106
P          8.23576       -8.17794        6.73373
O          8.45576       -9.56065        7.20887
O          9.02576       -7.12547        7.41210
O          8.48576       -8.09921        5.15950
C          7.54576       -8.75162        4.27044
C          8.27576       -9.28948        3.05881
O          8.48576       -8.19377        2.11444
C          9.67576       -9.84867        3.30504
O         10.06576      -10.78355        2.30689
C         10.55576       -8.61082        3.20587
C          9.84576       -7.80275        2.12889
N          9.89576       -6.33371        2.34780
C          9.81576       -5.64933        3.53477
N          9.88576       -4.36039        3.39605
C         10.03576       -4.18121        2.03336
C         10.16576       -3.02406        1.23468
N         10.17576       -1.78752        1.72262
N         10.28576       -3.19837       -0.09031
C         10.27576       -4.43439       -0.57923
N         10.15576       -5.58272        0.05118
C         10.03576       -5.37579        1.37545
H          7.05776       -9.58092        4.80218
H          6.78576       -8.02694        3.94549
H          7.65376      -10.07388        2.61173
H         10.30876       -8.03051        1.15762
H         10.58876       -8.06331        4.16015
H         11.57976       -8.87446        2.89948
H          9.74576      -10.31387        4.30075
H          9.70476       -6.14142        4.50037
H         10.08576       -1.63276        2.73629
H         10.27476       -0.98339        1.08568
H         10.38276       -4.50637       -1.65546
P         11.61574      -10.89221        2.51024
O         11.83574      -12.31133        2.16218
O         12.40574      -10.37266        3.64952
O         11.86574       -9.97489        1.22847
C         10.92574      -10.04207        0.12781
C         11.65574       -9.84049       -1.18225
O         11.86574       -8.40718       -1.38409
C         13.05574      -10.44304       -1.27726
O         13.44574      -10.69086       -2.62256
C         13.93574       -9.34907       -0.69162
C         13.22574       -8.08702       -1.16076
N         13.27574       -6.96854       -0.18234
C         13.42574       -5.67576       -0.67348
O         13.51574       -5.50731       -1.89843
N         13.47574       -4.61859        0.40373
C         13.37574       -4.85934        1.52063
N         13.42574       -3.81434        2.33520
C         13.22574       -6.17800        2.05336
C         13.17574       -7.19760        1.15509
H         10.43574      -11.02620        0.12678
H         10.16674       -9.25475        0.24615
H         11.03374      -10.25866       -1.98243
H         13.68874       -7.75258       -2.10062
H         13.96774       -9.40440        0.40717
H         14.95974       -9.40423       -1.09175
H         13.12574      -11.37271       -0.69121
H         13.05374       -8.21911        1.51040
H         13.15574       -6.35683        3.12535
H         13.54374       -2.86620        1.94903
H         13.34674       -3.95094        3.35238
P         14.99572      -10.89221       -2.51024
O         15.21572      -11.89694       -3.56992
O         15.78572      -11.07009       -1.27078
O         15.24572       -9.42754       -3.09258
C         14.30572       -8.88899       -4.05484
C         15.03572       -8.01114       -5.04795
O         15.24572       -6.69624       -4.44284
C         16.43572       -8.46667       -5.45365
O         16.82572       -7.94783       -6.71937
C         17.31572       -7.86298       -4.36953
C         16.60572       -6.54764       -4.08187
N         16.65572       -6.13651       -2.65465
C         16.57572       -6.91659       -1.51864
N         16.65572       -6.24251       -0.40148
C         16.79572       -4.91722       -0.81491
C         16.92572       -3.73204       -0.05503
O         16.94572       -3.59195        1.16667
N         17.04572       -2.60108       -0.88310
C         17.04572       -2.62557       -2.26244
N         17.17572       -1.44556       -2.87306
N         16.91572       -3.73910       -2.97915
C         16.79572       -4.84533       -2.19725
H         13.81672       -9.71719       -4.58830
H         13.54672       -8.29149       -3.53014
H         14.41372       -7.92963       -5.94646
H         17.06872       -5.75348       -4.69514
H         17.34772       -8.50271       -3.47458
H         18.33972       -7.69306       -4.73596
H         16.50572       -9.56560       -5.46325
H         16.45672       -7.99938       -1.55081
H         17.13872       -1.71062       -0.43737
H         17.17572       -1.39319       -3.90203
H         17.27672       -0.58370       -2.31536
P         18.37570       -8.17794       -6.73373
O         18.59570       -8.45086       -8.16919
O         19.16570       -8.99843       -5.78786
O         18.62570       -6.63093       -6.43177
C         17.68570       -5.65721       -6.94921
C         18.41570       -4.38223       -7.31096
O         18.62570       -3.60322       -6.09102
C         19.81570       -4.54612       -7.89853
O         20.20570       -3.42534       -8.68282
C         20.69570       -4.62438       -6.66014
C         19.98570       -3.67336       -5.70702
N         20.03570       -4.09873       -4.28316
C         20.18570       -3.11281       -3.33226
O         20.27570       -1.93268       -3.61678
N         20.22570       -3.55649       -2.02419
C         20.13570       -4.85873       -1.59755
O         20.18570       -5.13562       -0.39295
C         19.98570       -5.82255       -2.66046
C         19.87570       -7.25649       -2.24029
C         19.93570       -5.42670       -3.94863
H         17.19570       -6.06596       -7.84664
H         16.92670       -5.43823       -6.18477
H         17.79370       -3.82789       -8.02276
H         20.44870       -2.67945       -5.79224
H         20.72770       -5.64687       -6.25401
H         21.71970       -4.28332       -6.87653
H         19.88570       -5.46541       -8.50074
H         19.81470       -6.17184       -4.73465
H         20.84470       -7.75835       -2.38458
H         19.10770       -7.75811       -2.84529
H         19.59570       -7.30653       -1.17681
H         20.33170       -2.85709       -1.31729
P         21.75568       -3.61115       -8.81931
O         21.97568       -3.06475      -10.17544
O         22.54568       -4.81306       -8.46815
O         22.00568       -2.47298       -7.72891
C         21.06568       -1.37384       -7.63976
C         21.79568       -0.10593       -7.25280
O         22.00568       -0.10977       -5.80628
C         23.19568        0.07417       -7.83665
O         23.58568        1.44075       -7.88954
C         24.07568       -0.66150       -6.83621
C         23.36568       -0.37674       -5.52023
N         23.41568       -1.50420       -4.55336
C         23.33568       -2.84943       -4.81345
N         23.40568       -3.58866       -3.74849
C         23.55568       -2.67616       -2.72069
C         23.68568       -2.83032       -1.32316
N         23.69568       -4.00884       -0.70817
N         23.80568       -1.71481       -0.58721
C         23.79568       -0.53589       -1.20116
N         23.67568       -0.26033       -2.48184
C         23.55568       -1.39665       -3.19266
H         20.57768       -1.23263       -8.61472
H         20.30568       -1.60283       -6.87928
H         21.17368        0.74562       -7.55283
H         23.82868        0.50645       -5.05632
H         24.10868       -1.74124       -7.04734
H         25.09968       -0.25730       -6.83481
H         23.26568       -0.37369       -8.84028
H         23.22468       -3.25693       -5.81767
H         23.60568       -4.87627       -1.25503
H         23.79468       -4.05407        0.31665
H         23.90268        0.32461       -0.55077
P         25.13566        1.35822       -8.10482
O         25.35566        2.55058       -8.94939
O         25.92566        0.15698       -8.45824
O         25.38566        1.72619       -6.57218
C         24.44566        2.60201       -5.90217
C         25.17566        3.46008       -4.89192
O         25.38566        2.67400       -3.67652
C         26.57566        3.92648       -5.28508
O         26.96566        5.10547       -4.59138
C         27.45566        2.76748       -4.84182
C         26.74566        2.29556       -3.58080
N         26.79566        0.82367       -3.37624
C         26.94566        0.34826       -2.07760
O         27.03566        1.16371       -1.14812
N         26.99566       -1.15814       -1.98406
C         26.89566       -1.84458       -2.89742
N         26.94566       -3.14452       -2.64109
C         26.74566       -1.38365       -4.24286
C         26.69566       -0.03709       -4.42518
H         23.95566        3.24726       -6.64525
H         23.68666        1.99699       -5.38465
H         24.55366        4.33866       -4.68394
H         27.20866        2.78685       -2.71258
H         27.48766        1.97330       -5.60319
H         28.47966        3.10600       -4.62147
H         26.64566        4.09237       -6.37146
H         26.57366        0.36334       -5.42987
H         26.67566       -2.07670       -5.08002
H         27.06366       -3.47357       -1.67165
H         26.86666       -3.82380       -3.41045
P         28.51564        5.15244       -4.81711
O         28.73564        6.61125       -4.88249
O         29.30564        4.33221       -5.76321
O         28.76564        4.63339       -3.32883
C         27.82564        5.00794       -2.29167
C         28.55564        5.18361       -0.97789
O         28.76564        3.86523       -0.38042
C         29.95564        5.78853       -1.05648
O         30.34564        6.40532        0.16450
C         30.83564        4.57388       -1.31019
C         30.12564        3.49511       -0.50450
N         30.17564        2.14726       -1.12842
C         30.09564        1.79956       -2.46189
N         30.17564        0.51385       -2.68404
C         30.31564       -0.04159       -1.41171
C         30.44564       -1.39200       -1.01363
O         30.46564       -2.40703       -1.70780
N         30.56564       -1.50680        0.38335
C         30.56564       -0.44833        1.26813
N         30.69564       -0.75960        2.55979
N         30.43564        0.82253        0.89593
C         30.31564        0.95603       -0.45214
H         27.33664        5.95346       -2.56824
H         27.06664        4.22012       -2.18373
H         27.93364        5.80928       -0.32789
H         30.58864        3.43852        0.49729
H         30.86764        4.31645       -2.37973
H         31.85964        4.73953       -0.94181
H         30.02564        6.51543       -1.88071
H         29.97664        2.53295       -3.25915
H         30.65864       -2.42679        0.76444
H         30.69564       -0.01625        3.27321
H         30.79664       -1.74548        2.84592
P         31.89562        6.56687       -0.00000
O         32.11562        7.83044        0.73377
O         32.68562        6.38934       -1.23950
O         32.14562        5.32559        0.97140
C         31.20562        5.07899        2.04614
C         31.93562        4.51746        3.24661
O         32.14562        3.08534        3.03646
C         33.33562        5.06883        3.50753
O         33.72562        4.92760        4.86816
C         34.21562        4.18417        2.63741
C         33.50562        2.84107        2.73198
N         33.55562        2.04355        1.47808
C         33.70562        0.67926        1.60048
O         33.79562        0.12147        2.67869
N         33.74562       -0.01876        0.40857
C         33.65562        0.51158       -0.85499
O         33.70562       -0.21747       -1.85310
C         33.50562        1.94605       -0.88734
C         33.39562        2.56753       -2.24619
C         33.45562        2.66036        0.25540
H         30.71562        6.02490        2.32493
H         30.44662        4.35787        1.71105
H         31.31362        4.69239        4.13168
H         33.96862        2.25460        3.53894
H         34.24762        4.54682        1.59871
H         35.23962        4.12436        3.03687
H         33.40562        6.12596        3.20714
H         33.33462        3.74235        0.20699
H         34.36462        3.00524       -2.53099
H         32.62762        3.35326       -2.22910
H         33.11562        1.79658       -2.98044
H         33.85162       -1.01102        0.47422
P         35.27560        5.15244        4.81711
O         35.49560        5.81952        6.11813
O         36.06560        5.67413        3.67881
O         35.52560        3.58303        4.96322
C         34.58560        2.79586        5.73552
C         35.31560        1.67311        6.44033
O         35.52560        0.58243        5.49017
C         36.71560        1.99642        6.95878
O         37.10560        1.14147        8.02621
C         37.59560        1.72209        5.74766
C         36.88560        0.54107        5.10108
N         36.93560        0.54869        3.61584
C         36.85560        1.62619        2.76950
N         36.92560        1.30544        1.51342
C         37.07560       -0.06888        1.52999
C         37.20560       -1.02411        0.49829
N         37.21560       -0.71712       -0.79510
N         37.32560       -2.31080        0.85939
C         37.31560       -2.61884        2.15241
N         37.19560       -1.83142        3.19934
C         37.07560       -0.55009        2.80605
H         34.09760        3.44022        6.48070
H         33.82560        2.37109        5.06445
H         34.69360        1.34222        7.28037
H         37.34860       -0.38790        5.46475
H         37.62860        2.58874        5.06991
H         38.61960        1.45635        6.05222
H         36.78560        3.04820        7.27755
H         36.74460        2.65198        3.11916
H         37.12560        0.26422       -1.09255
H         37.31460       -1.46201       -1.50041
H         37.42260       -3.67388        2.37682
P         38.65558        1.35822        8.10482
O         38.87558        1.21567        9.55902
O         39.44558        2.41196        7.42843
O         38.90558       -0.04105        7.37925
C         37.96558       -1.12095        7.60239
C         38.69558       -2.44636        7.58930
O         38.90558       -2.85012        6.19930
C         40.09558       -2.45465        8.19924
O         40.48558       -3.75099        8.63600
C         40.97558       -2.03066        7.03306
C         40.26558       -2.67463        5.85062
N         40.31558       -1.86535        4.60428
C         40.46558       -2.53547        3.39456
O         40.55558       -3.77193        3.40215
N         40.51558       -1.61968        2.19484
C         40.41558       -0.47989        2.27419
N         40.46558        0.17767        1.12390
C         40.26558        0.23509        3.50361
C         40.21558       -0.50894        4.64067
H         37.47558       -0.98191        8.57665
H         37.20658       -1.11586        6.80624
H         38.07358       -3.17889        8.11709
H         40.72858       -3.65252        5.65334
H         41.00758       -0.93518        6.93145
H         41.99958       -2.41887        7.14460
H         40.16558       -1.74226        9.03604
H         40.09358       -0.01186        5.60122
H         40.19558        1.32162        3.52806
H         40.58358       -0.33950        0.24037
H         40.38658        1.20395        1.11435
P         42.03556       -3.61115        8.81931
O         42.25556       -4.51706        9.96462
O         42.82556       -2.35900        8.81899
O         42.28556       -4.39602        7.45242
C         41.34556       -5.42512        7.05630
C         42.07556       -6.53305        6.32871
O         42.28556       -6.12124        4.94108
C         43.47556       -6.86979        6.83735
O         43.86556       -8.19647        6.50391
C         44.35556       -5.88263        6.08552
C         43.64556       -5.78509        4.74263
N         43.69556       -4.43090        4.13256
C         43.61556       -3.19544        4.74303
N         43.69556       -2.18559        3.91683
C         43.83556       -2.78341        2.66386
C         43.96556       -2.19994        1.38260
O         43.98556       -1.01061        1.07008
N         44.08556       -3.18053        0.38101
C         44.08556       -4.54234        0.60155
N         44.21556       -5.31468       -0.47956
N         43.95556       -5.09329        1.80574
C         43.83556       -4.16192        2.78943
H         40.85656       -5.83529        7.95198
H         40.58656       -4.99079        6.39021
H         41.45356       -7.43402        6.37590
H         44.10856       -6.50514        4.04382
H         44.38756       -4.90575        6.59137
H         45.37956       -6.26951        5.96947
H         43.54556       -6.72290        7.92646
H         43.49656       -3.07318        5.81939
H         44.17856       -2.86607       -0.56382
H         44.21556       -6.34064       -0.38496
H         44.31656       -4.88531       -1.41201
P         45.41554       -8.17794        6.73373
O         45.63554       -9.55995        7.20816
O         46.20554       -7.12493        7.41126
O         45.66554       -8.09921        5.15950
C         44.72554       -8.74996        4.26933
C         45.45554       -9.28948        3.05881
O         45.66554       -8.19283        2.11410
C         46.85554       -9.84775        3.30464
O         47.24554      -10.78355        2.30689
C         47.73554       -8.61082        3.20587
C         47.02554       -7.80275        2.12889
N         47.07554       -6.33285        2.34729
C         47.22554       -5.53194        1.23608
O         47.31554       -5.98151        0.10845
N         47.26554       -4.17404        1.48908
C         47.17554       -3.56641        2.71735
O         47.22554       -2.33466        2.81999
C         47.02554       -4.48134        3.82262
C         46.91554       -3.86137        5.18218
C         46.97554       -5.81273        3.61413
H         44.23554       -9.58009        4.80163
H         43.96654       -8.02447        3.94378
H         44.83354      -10.07293        2.61141
H         47.48854       -8.02855        1.15722
H         47.76754       -8.06331        4.16015
H         48.75954       -8.87355        2.89908
H         46.92554      -10.31299        4.30028
H         46.85454       -6.48470        4.46355
H         47.88454       -3.93277        5.69947
H         46.14754       -4.38883        5.76479
H         46.63554       -2.80159        5.08036
H         47.37154       -3.57386        0.69620
P         48.79552      -10.89221        2.51024
O         49.01552      -12.31230        2.16240
O         49.58552      -10.37357        3.64993
O         49.04552       -9.97489        1.22847
C         48.10552      -10.04307        0.12783
C         48.83552       -9.84049       -1.18225
O         49.04552       -8.40815       -1.38431
C         50.23552      -10.44403       -1.27742
O         50.62552      -10.69086       -2.62256
C         51.11552       -9.34907       -0.69162
C         50.40552       -8.08702       -1.16076
N         50.45552       -6.96954       -0.18238
C         50.37552       -7.03553        1.18617
N         50.44552       -5.87620        1.76632
C         50.59552       -4.98874        0.71683
C         50.72552       -3.58348        0.67054
N         50.73552       -2.80704        1.74954
N         50.84552       -3.01378       -0.53835
C         50.83552       -3.78926       -1.61790
N         50.71552       -5.09612       -1.70840
C         50.59552       -5.63799       -0.48248
H         47.61752      -11.02820        0.12681
H         47.34552       -9.25775        0.24626
H         48.21352      -10.25866       -1.98243
H         50.86852       -7.75352       -2.10098
H         51.14852       -9.40440        0.40717
H         52.13952       -9.40521       -1.09191
H         50.30552      -11.37371       -0.69129
H         50.26452       -7.97154        1.73244
H         50.64552       -3.22488        2.68597
H         50.83452       -1.78621        1.64847
H         50.94252       -3.26795       -2.56220
P         52.17550      -10.89221       -2.51024
O         52.39550      -11.89788       -3.57027
O         52.96550      -11.07108       -1.27093
O         52.42550       -9.42754       -3.09258
C         51.48550       -8.88899       -4.05484