#
# this is for exchange energy density testing all of examples are with density
# matrix whose element are all set to one
#
# we do not have open shell cases, since in this case because for alpha and
# beta density matrices the element are all set to one, os open shell is same
# with close shell.
#


%global_infor
multi_threads  true
%end

#
# He atom calculation
# alpha exchange energy is  -181.006416674802807
# beta  exchange energy is  -181.006416674802807
#
%molecule
0 1
He       0.000000     0.000000     0.00000
%end

%basis
 He 0 
 S    3 1.00 
  0.9812430000D+02  0.2874520000D-01
  0.1476890000D+02  0.2080610000D+00
  0.3318830000D+01  0.8376350000D+00
 S    1 1.00 
  0.8740470000D+00  0.1000000000D+01
 S    1 1.00 
  0.2445640000D+00  0.1000000000D+01
 S    1 1.00 
  0.8600000000D-01  0.1000000000D+01
 P    1 1.00 
  0.1500000000D+01  0.1000000000D+01
 P    1 1.00 
  0.3750000000D+00  0.1000000000D+01
%end

%xcfunc
name B05
%end

%xcints
grid_points  128  302
threshold   1.0e-12
debug exrho
%end

#
# Ne atom calculation with 6-31G
# alpha exchange energy is  -125.493107050707394
# beta  exchange energy is  -125.493107050707394
#
%molecule
0 1
Ne       0.000000     0.000000     0.00000
%end

%basis
Ne     0 
S   6   1.00
   8425.8515300              0.0018843481     
   1268.5194000              0.0143368994     
    289.6214140              0.0701096233     
     81.8590040              0.2373732660     
     26.2515079              0.4730071260     
      9.09472051             0.3484012410     
SP   3   1.00
     26.5321310             -0.107118287            0.0719095885     
      6.10175501            -0.146163821            0.3495133720     
      1.69627153             1.127773500            0.7199405120     
SP   1   1.00
      0.44581870             1.0000000              1.0000000        
%end

%xcfunc
name B05
%end

%xcints
grid_points  128  302
threshold   1.0e-12
debug exrho
%end

#
# Ne atom calculation with 6-31G**
# alpha exchange energy is -437.468779962390897
# beta  exchange energy is -437.468779962390897
#
%molecule
0 1
Ne       0.000000     0.000000     0.00000
%end

%basis
Ne     0 
S   6   1.00
   8425.8515300              0.0018843481     
   1268.5194000              0.0143368994     
    289.6214140              0.0701096233     
     81.8590040              0.2373732660     
     26.2515079              0.4730071260     
      9.09472051             0.3484012410     
SP   3   1.00
     26.5321310             -0.107118287            0.0719095885     
      6.10175501            -0.146163821            0.3495133720     
      1.69627153             1.127773500            0.7199405120     
SP   1   1.00
      0.44581870             1.0000000              1.0000000        
D   1   1.00                 C
      0.8000000              1.0000000        
%end

%xcfunc
name B05
%end

%xcints
grid_points  128  302
threshold   1.0e-12
debug exrho
%end

#
# Ne atom calculation with aug-cc-pvdz
# alpha exchange energy is -713.039755697555734
# beta  exchange energy is -713.039755697555734
#
%molecule
0 1
Ne       0.000000     0.000000     0.00000
%end

%basis
Ne     0 
S   8   1.00
  17880.0000000              0.0007380        
   2683.0000000              0.0056770        
    611.5000000              0.0288830        
    173.5000000              0.1085400        
     56.6400000              0.2909070        
     20.4200000              0.4483240        
      7.8100000              0.2580260        
      1.6530000              0.0150630        
S   8   1.00
  17880.0000000             -0.0001720        
   2683.0000000             -0.0013570        
    611.5000000             -0.0067370        
    173.5000000             -0.0276630        
     56.6400000             -0.0762080        
     20.4200000             -0.1752270        
      7.8100000             -0.1070380        
      1.6530000              0.5670500        
S   1   1.00
      0.4869000              1.0000000        
S   1   1.00
      0.1230000              1.0000000        
P   3   1.00
     28.3900000              0.0460870        
      6.2700000              0.2401810        
      1.6950000              0.5087440        
P   1   1.00
      0.4317000              1.0000000        
P   1   1.00
      0.1064000              1.0000000        
D   1   1.00
      2.2020000              1.0000000        
D   1   1.00
      0.6310000              1.0000000        
%end

%xcfunc
name B05
%end

%xcints
grid_points  128  302
threshold   1.0e-12
debug exrho
%end

#
# H2O
# basis set is 6-311++G(3df,3dp)
# alpha exchange energy is  -12578.845478389775963
# beta  exchange energy is  -12578.845478389775963
#
%molecule
0 1
H  0   0  1
H  0   1  0
O  0   0  0
%end

%basis
H     0 
S   3   1.00
     33.8650000              0.0254938        
      5.0947900              0.1903730        
      1.1587900              0.8521610        
S   1   1.00
      0.3258400              1.0000000        
S   1   1.00
      0.1027410              1.0000000        
S   1   1.00
      0.0360000              1.0000000        
P   1   1.00
      3.0000000              1.0000000        
P   1   1.00
      0.7500000              1.0000000        
P   1   1.00
      0.1875000              1.0000000        
D   1   1.00
      1.0000000              1.0000000        
****
O     0 
S   6   1.00
   8588.5000000              0.00189515       
   1297.2300000              0.0143859        
    299.2960000              0.0707320        
     87.3771000              0.2400010        
     25.6789000              0.5947970        
      3.7400400              0.2808020        
SP   3   1.00
     42.1175000              0.1138890              0.0365114        
      9.6283700              0.9208110              0.2371530        
      2.8533200             -0.00327447             0.8197020        
SP   1   1.00
      0.9056610              1.0000000              1.0000000        
SP   1   1.00
      0.2556110              1.0000000              1.0000000        
SP   1   1.00
      0.0845000              1.0000000              1.0000000        
D   1   1.00
      5.1600000              1.0000000        
D   1   1.00
      1.2920000              1.0000000        
D   1   1.00
      0.3225000              1.0000000        
F   1   1.00
      1.4000000              1.0000000        
%end

%xcfunc
name B05
%end

%xcints
grid_points  128  302
threshold   1.0e-12
debug exrho
%end

#
# NH3 
# basis set is 6-31G**
# alpha exchange energy is  -2091.371831844154258
# beta  exchange energy is  -2091.371831844154258
#
%molecule
0 1
H       0.932375     0.000000    -0.254973
H      -0.466187    -0.807460    -0.254973
H      -0.466187     0.807460    -0.254973
N       0.000000     0.000000     0.109274
%end

%basis
H     0 
S   3   1.00
     18.7311370              0.03349460       
      2.8253937              0.23472695       
      0.6401217              0.81375733       
S   1   1.00
      0.1612778              1.0000000        
P   1   1.00
      1.1000000              1.0000000        
****
N     0 
S   6   1.00
   4173.5110000              0.0018348        
    627.4579000              0.0139950        
    142.9021000              0.0685870        
     40.2343300              0.2322410        
     12.8202100              0.4690700        
      4.3904370              0.3604550        
SP   3   1.00
     11.6263580             -0.1149610              0.0675800        
      2.7162800             -0.1691180              0.3239070        
      0.7722180              1.1458520              0.7408950        
SP   1   1.00
      0.2120313              1.0000000              1.0000000        
D   1   1.00                 C
      0.8000000              1.0000000        
%end

%xcfunc
name B05
%end

%xcints
grid_points  128  302
threshold   1.0e-12
debug exrho
%end

#
# CH4
# basis set is aug-cc-pvdz
# alpha exchange energy is -11474.840588409653719 
# beta  exchange energy is -11474.840588409653719 
#
%molecule
0 1
H          0.37259        1.04556        0.00000
H         -1.05408        0.76072       -0.96776
H         -1.05408        2.02608        0.23720
H         -1.05408        0.34988        0.73056
C         -0.69741        1.04556        0.00000
%end

%basis
H     0 
S   3   1.00
     13.0100000              0.0196850        
      1.9620000              0.1379770        
      0.4446000              0.4781480        
S   1   1.00
      0.1220000              1.0000000        
S   1   1.00
      0.0297400              1.0000000        
P   1   1.00
      0.7270000              1.0000000        
P   1   1.00
      0.1410000              1.0000000        
****
C     0 
S   8   1.00
   6665.0000000              0.0006920        
   1000.0000000              0.0053290        
    228.0000000              0.0270770        
     64.7100000              0.1017180        
     21.0600000              0.2747400        
      7.4950000              0.4485640        
      2.7970000              0.2850740        
      0.5215000              0.0152040        
S   8   1.00
   6665.0000000             -0.0001460        
   1000.0000000             -0.0011540        
    228.0000000             -0.0057250        
     64.7100000             -0.0233120        
     21.0600000             -0.0639550        
      7.4950000             -0.1499810        
      2.7970000             -0.1272620        
      0.5215000              0.5445290        
S   1   1.00
      0.1596000              1.0000000        
S   1   1.00
      0.0469000              1.0000000        
P   3   1.00
      9.4390000              0.0381090        
      2.0020000              0.2094800        
      0.5456000              0.5085570        
P   1   1.00
      0.1517000              1.0000000        
P   1   1.00
      0.0404100              1.0000000        
D   1   1.00
      0.5500000              1.0000000        
D   1   1.00
      0.1510000              1.0000000        
%end

%xcfunc
name B05
%end

%xcints
grid_points  128  302
threshold   1.0e-12
debug exrho
%end

