%molecule
0  1
H       0.932375     0.000000    -0.254973
H      -0.466187    -0.807460    -0.254973
H      -0.466187     0.807460    -0.254973
N       0.000000     0.000000     0.109274
%end

# aug-cc-pvdz
%basis
 H   0
 S   3  1.00
       13.0100000         0.196850000E-01
       1.96200000         0.137977000    
      0.444600000         0.478148000    
 S   1  1.00
      0.122000000          1.00000000    
 S   1  1.00
      0.297400000E-01      1.00000000    
 P   1  1.00
      0.727000000          1.00000000    
 P   1  1.00
      0.141000000          1.00000000    
 ****
 N   0
 S   8  1.00
       9046.00000         0.700000000E-03
       1357.00000         0.538900000E-02
       309.300000         0.274060000E-01
       87.7300000         0.103207000    
       28.5600000         0.278723000    
       10.2100000         0.448540000    
       3.83800000         0.278238000    
      0.746600000         0.154400000E-01
 S   8  1.00
       9046.00000        -0.153000000E-03
       1357.00000        -0.120800000E-02
       309.300000        -0.599200000E-02
       87.7300000        -0.245440000E-01
       28.5600000        -0.674590000E-01
       10.2100000        -0.158078000    
       3.83800000        -0.121831000    
      0.746600000         0.549003000    
 S   1  1.00
      0.224800000          1.00000000    
 S   1  1.00
      0.612400000E-01      1.00000000    
 P   3  1.00
       13.5500000         0.399190000E-01
       2.91700000         0.217169000    
      0.797300000         0.510319000    
 P   1  1.00
      0.218500000          1.00000000    
 P   1  1.00
      0.561100000E-01      1.00000000    
 D   1  1.00
      0.230000000          1.00000000    
 D   1  1.00
      0.817000000          1.00000000    
%end

%gints
gints2d_threshold  1.0E-14
%end

#
#  this is CH4 with G3large basis set
#
%molecule
0  1
C   .000000     .000000     .000000
H   .628352     .628352     .628352
H  -.628352    -.628352     .628352
H   .628352    -.628352    -.628352
H  -.628352     .628352    -.628352
%end

%basis
 H 0
 S    3 1.00
  0.3386500000D+02  0.2549380000D-01
  0.5094790000D+01  0.1903730000D+00
  0.1158790000D+01  0.8521610000D+00
 S    1 1.00
  0.3258400000D+00  0.1000000000D+01
 S    1 1.00
  0.1027410000D+00  0.1000000000D+01
 S    1 1.00
  0.3600000000D-01  0.1000000000D+01
 P    1 1.00
  0.1500000000D+01  0.1000000000D+01
 P    1 1.00
  0.3750000000D+00  0.1000000000D+01
 ****
 C 0
 S    6 1.00
  0.4563240000D+04  0.1966650000D-02
  0.6820240000D+03  0.1523060000D-01
  0.1549730000D+03  0.7612690000D-01
  0.4445530000D+02  0.2608010000D+00
  0.1302900000D+02  0.6164620000D+00
  0.1827730000D+01  0.2210060000D+00
 SP   3 1.00
  0.2096420000D+02  0.1146600000D+00  0.4024870000D-01
  0.4803310000D+01  0.9199990000D+00  0.2375940000D+00
  0.1459330000D+01 -0.3030680000D-02  0.8158540000D+00
 SP   1 1.00
  0.4834560000D+00  0.1000000000D+01  0.1000000000D+01
 SP   1 1.00
  0.1455850000D+00  0.1000000000D+01  0.1000000000D+01
 SP   1 1.00
  0.4380000000D-01  0.1000000000D+01  0.1000000000D+01
 D    1 1.00
  0.1252000000D+01  0.1000000000D+01
 D    1 1.00
  0.3130000000D+00  0.1000000000D+01
 F    1 1.00
  0.8000000000D+00  0.1000000000D+01
 P   1 1.00
  0.16000000000000D+02  0.1000000000D+01  
 D   1 1.00
  0.15000000000000D+02  0.1000000000D+01 
%end

%gints
gints2d_threshold  1.0E-14
%end

